NAME: Instances/Nodes/15n_10s_15d_instance.tsp
COMMENT: Ben Desjardins (bdesj038@uottawa.ca)
DIMENSION: 15
SPARCITY: 10
%HOLES: 15.0%
EDGE_WEIGHT_TYPE: EUC_2D


NODE	X_LOC	Y_LOC	DEMAND	BATTERY
DATASTART
0	0	0	0	0
1	-223	-19	1	90
2	16	6	1	18
3	-367	352	1	96
4	-257	136	1	10
5	-24	193	1	20
6	-94	169	1	56
7	-28	-51	1	41
8	279	383	1	17
9	-314	48	1	64
10	430	76	1	42
11	315	-179	1	14
12	341	-103	1	91
EODATA
NODE	X_LOC	Y_LOC	DEMAND	DEGREE
HOLESTART
0	460	500	-1	8
1	440	100	-1	12
EOHOLE
EOF
